\ENCODING=ISO-8859-1
\Problem name: ilog.cplex

Minimize
 obj1: 108684 x1 + 109191 x2 + 96242 x3 + 94798 x4 + 106804 x5 + 95953 x6
       + 102459 x7 + 91220 x8 + 108362 x9 + 97964 x10 + 94793 x11 + 91673 x12
       + 105308 x13 + 100918 x14 + 98632 x15 + 109281 x16 + 109972 x17
       + 97343 x18 + 108034 x19 + 107585 x20 + 108835 x21 + 109080 x22
       + 108320 x23 + 105878 x24 + 100014 x25 + 99936 x26 + 108953 x27
       + 95685 x28 + 91852 x29 + 96434 x30 + 98922 x31 + 102708 x32
       + 103523 x33 + 107550 x34 + 90579 x35 + 104381 x36 + 97571 x37
       + 97950 x38 + 107285 x39 + 109567 x40 + 109080 x41 + 103487 x42
       + 95254 x43 + 104020 x44 + 96447 x45 + 102556 x46 + 100600 x47
       + 102878 x48 + 104722 x49 + 92426 x50 + 105754 x51 + 96376 x52
       + 101087 x53 + 102955 x54 + 99232 x55 + 109642 x56 + 93327 x57
       + 99025 x58 + 93697 x59 + 93455 x60 + 91999 x61 + 98069 x62 + 102997 x63
       + 105507 x64 + 100867 x65 + 106811 x66 + 97537 x67 + 91011 x68
       + 92142 x69 + 103972 x70 + 107664 x71 + 100216 x72 + 100087 x73
       + 99881 x74 + 101901 x75 + 97494 x76 + 103225 x77 + 105726 x78
       + 95553 x79 + 91962 x80 + 103642 x81 + 90137 x82 + 96296 x83 + 96473 x84
       + 95785 x85 + 103000 x86 + 95110 x87 + 94346 x88 + 101734 x89
       + 94220 x90 + 103287 x91 + 101322 x92 + 95079 x93 + 108648 x94
       + 99216 x95 + 94043 x96 + 101345 x97 + 97403 x98 + 102275 x99
       + 95710 x100 + 104610 x101 + 94736 x102 + 106783 x103 + 92696 x104
       + 101852 x105 + 105330 x106 + 90291 x107 + 94195 x108 + 100907 x109
       + 104767 x110 + 109483 x111 + 105470 x112 + 103458 x113 + 101663 x114
       + 95790 x115 + 107189 x116 + 103572 x117 + 99621 x118 + 96545 x119
       + 96545 x120 + 95353 x121 + 94326 x122 + 92895 x123 + 90753 x124
       + 108016 x125 + 94514 x126 + 98243 x127 + 101329 x128 + 96701 x129
       + 95130 x130 + 102341 x131 + 97112 x132 + 97376 x133 + 102964 x134
       + 101500 x135 + 93882 x136 + 109812 x137 + 107773 x138 + 96346 x139
       + 98879 x140 + 103898 x141 + 105205 x142 + 105115 x143 + 99658 x144
       + 91450 x145 + 91721 x146 + 92704 x147 + 98464 x148 + 108177 x149
       + 106316 x150 + 108979 x151 + 109619 x152 + 98655 x153 + 90740 x154
       + 101644 x155 + 94738 x156 + 96736 x157 + 95853 x158 + 93818 x159
       + 109480 x160 + 95719 x161 + 95393 x162 + 92104 x163 + 93288 x164
       + 92126 x165 + 95667 x166 + 90539 x167 + 104796 x168 + 101334 x169
       + 108808 x170 + 96931 x171 + 93690 x172 + 100622 x173 + 109639 x174
       + 109356 x175 + 104475 x176 + 104697 x177 + 105792 x178 + 96464 x179
       + 95321 x180 + 98626 x181 + 91555 x182 + 95477 x183 + 103664 x184
       + 91117 x185 + 94694 x186 + 102532 x187 + 104289 x188 + 99676 x189
       + 99881 x190 + 91445 x191 + 105343 x192 + 98443 x193 + 102402 x194
       + 99039 x195 + 93054 x196 + 109334 x197 + 91418 x198 + 97848 x199
       + 106890 x200 + 103477 x201 + 104276 x202 + 103093 x203 + 102439 x204
       + 109798 x205 + 108811 x206 + 102250 x207 + 99733 x208 + 94019 x209
       + 109392 x210 + 93862 x211 + 92782 x212 + 95774 x213 + 109126 x214
       + 104192 x215 + 106456 x216 + 96781 x217 + 91741 x218 + 103652 x219
       + 92465 x220 + 97403 x221 + 93750 x222 + 92932 x223 + 92404 x224
       + 95091 x225 + 95172 x226 + 91318 x227 + 105990 x228 + 96583 x229
       + 96340 x230 + 100440 x231 + 97506 x232 + 97349 x233 + 104457 x234
       + 98552 x235 + 102399 x236 + 108947 x237 + 100290 x238 + 98008 x239
       + 105526 x240 + 107816 x241 + 92750 x242 + 91707 x243 + 92718 x244
       + 97458 x245 + 97109 x246 + 103067 x247 + 108134 x248 + 100071 x249
       + 107437 x250 + 213470 x251 + 205581 x252 + 197567 x253 + 180694 x254
       + 181025 x255 + 185552 x256 + 188514 x257 + 186811 x258 + 193092 x259
       + 219025 x260 + 185477 x261 + 207878 x262 + 217365 x263 + 204623 x264
       + 182170 x265 + 189969 x266 + 192494 x267 + 183087 x268 + 188277 x269
       + 213188 x270 + 188472 x271 + 217699 x272 + 219914 x273 + 219516 x274
       + 219106 x275 + 210428 x276 + 197293 x277 + 189353 x278 + 199551 x279
       + 180555 x280 + 219771 x281 + 213093 x282 + 202220 x283 + 190092 x284
       + 205664 x285 + 203437 x286 + 188472 x287 + 211566 x288 + 185199 x289
       + 207350 x290 + 181366 x291 + 198815 x292 + 219718 x293 + 203452 x294
       + 196333 x295 + 200198 x296 + 188697 x297 + 191323 x298 + 201993 x299
       + 233495 x300
Subject To
 c1:   - x6 - x15 + x20 + x25 + x31 - x34 - x35 - x36 - x37 - x48 + x49 + x50
        = 0
 c2:   - x56 - x65 + x70 + x75 + x81 - x84 - x85 - x86 - x87 - x98 + x99 + x100
        = 0
 c3:   - x106 - x115 + x120 + x125 + x131 - x134 - x135 - x136 - x137 - x148
       + x149 + x150  = 1
 c4:   - x156 - x165 + x170 + x175 + x181 - x184 - x185 - x186 - x187 - x198
       + x199 + x200  = 0
 c5:   - x206 - x215 + x220 + x225 + x231 - x234 - x235 - x236 - x237 - x248
       + x249 + x250  = 0
 c6:   x1 - x2 + x4 + x7 + x9 - x10 - x18 - x21 + x29 + x36 - x39 + x40 + x45
       + x46  = 1
 c7:   x51 - x52 + x54 + x57 + x59 - x60 - x68 - x71 + x79 + x86 - x89 + x90
       + x95 + x96  = 0
 c8:   x101 - x102 + x104 + x107 + x109 - x110 - x118 - x121 + x129 + x136
       - x139 + x140 + x145 + x146  = 0
 c9:   x151 - x152 + x154 + x157 + x159 - x160 - x168 - x171 + x179 + x186
       - x189 + x190 + x195 + x196  = 0
 c10:  x201 - x202 + x204 + x207 + x209 - x210 - x218 - x221 + x229 + x236
       - x239 + x240 + x245 + x246  = 0
 c11:  x2 - x8 - x17 - x29 + x35 + x47 - x49  = 0
 c12:  x52 - x58 - x67 - x79 + x85 + x97 - x99  = 0
 c13:  x102 - x108 - x117 - x129 + x135 + x147 - x149  = -1
 c14:  x152 - x158 - x167 - x179 + x185 + x197 - x199  = 1
 c15:  x202 - x208 - x217 - x229 + x235 + x247 - x249  = 0
 c16:  x5 - x7 - x11 - x20 + x24 + x27 - x28 + x39 - x43 + x48  = 0
 c17:  x55 - x57 - x61 - x70 + x74 + x77 - x78 + x89 - x93 + x98  = 0
 c18:  x105 - x107 - x111 - x120 + x124 + x127 - x128 + x139 - x143 + x148  = 0
 c19:  x155 - x157 - x161 - x170 + x174 + x177 - x178 + x189 - x193 + x198  = 0
 c20:  x205 - x207 - x211 - x220 + x224 + x227 - x228 + x239 - x243 + x248  = 0
 c21:  x3 + x10 - x13 + x14 + x17 - x30 + x32 + x42 - x46  = 0
 c22:  x53 + x60 - x63 + x64 + x67 - x80 + x82 + x92 - x96  = 0
 c23:  x103 + x110 - x113 + x114 + x117 - x130 + x132 + x142 - x146  = 0
 c24:  x153 + x160 - x163 + x164 + x167 - x180 + x182 + x192 - x196  = 0
 c25:  x203 + x210 - x213 + x214 + x217 - x230 + x232 + x242 - x246  = 0
 c26:  - x4 + x13 + x19 + x21 - x22 - x27 + x28 - x33 + x41 - x42 + x44 - x50
        = 0
 c27:  - x54 + x63 + x69 + x71 - x72 - x77 + x78 - x83 + x91 - x92 + x94 - x100
        = 0
 c28:  - x104 + x113 + x119 + x121 - x122 - x127 + x128 - x133 + x141 - x142
       + x144 - x150  = 0
 c29:  - x154 + x163 + x169 + x171 - x172 - x177 + x178 - x183 + x191 - x192
       + x194 - x200  = 0
 c30:  - x204 + x213 + x219 + x221 - x222 - x227 + x228 - x233 + x241 - x242
       + x244 - x250  = -1
 c31:  - x9 + x12 - x14 + x16 + x18 + x22 - x24 - x25 + x34 - x41  = 0
 c32:  - x59 + x62 - x64 + x66 + x68 + x72 - x74 - x75 + x84 - x91  = 0
 c33:  - x109 + x112 - x114 + x116 + x118 + x122 - x124 - x125 + x134 - x141
        = 0
 c34:  - x159 + x162 - x164 + x166 + x168 + x172 - x174 - x175 + x184 - x191
        = 0
 c35:  - x209 + x212 - x214 + x216 + x218 + x222 - x224 - x225 + x234 - x241
        = 1
 c36:  - x12 + x15 + x23 - x26 + x30 - x31 - x32 + x43 - x45 - x47  = 0
 c37:  - x62 + x65 + x73 - x76 + x80 - x81 - x82 + x93 - x95 - x97  = -1
 c38:  - x112 + x115 + x123 - x126 + x130 - x131 - x132 + x143 - x145 - x147
        = 0
 c39:  - x162 + x165 + x173 - x176 + x180 - x181 - x182 + x193 - x195 - x197
        = 0
 c40:  - x212 + x215 + x223 - x226 + x230 - x231 - x232 + x243 - x245 - x247
        = 0
 c41:  - x1 - x5 + x11 - x16 - x23 + x37 + x38 - x44  = -1
 c42:  - x51 - x55 + x61 - x66 - x73 + x87 + x88 - x94  = 0
 c43:  - x101 - x105 + x111 - x116 - x123 + x137 + x138 - x144  = 0
 c44:  - x151 - x155 + x161 - x166 - x173 + x187 + x188 - x194  = 0
 c45:  - x201 - x205 + x211 - x216 - x223 + x237 + x238 - x244  = 0
 c46:  - x3 + x6 + x8 - x19 + x26 + x33 - x38 - x40  = 0
 c47:  - x53 + x56 + x58 - x69 + x76 + x83 - x88 - x90  = 1
 c48:  - x103 + x106 + x108 - x119 + x126 + x133 - x138 - x140  = 0
 c49:  - x153 + x156 + x158 - x169 + x176 + x183 - x188 - x190  = -1
 c50:  - x203 + x206 + x208 - x219 + x226 + x233 - x238 - x240  = 0
 c51:  4 x1 + 4 x51 + 4 x101 + 4 x151 + 4 x201 - 10 x251 <= 0
 c52:  4 x2 + 4 x52 + 4 x102 + 4 x152 + 4 x202 - 9 x252 <= 0
 c53:  4 x3 + 4 x53 + 4 x103 + 4 x153 + 4 x203 - 10 x253 <= 0
 c54:  4 x4 + 4 x54 + 4 x104 + 4 x154 + 4 x204 - 9 x254 <= 0
 c55:  4 x5 + 4 x55 + 4 x105 + 4 x155 + 4 x205 - 9 x255 <= 0
 c56:  4 x6 + 4 x56 + 4 x106 + 4 x156 + 4 x206 - 9 x256 <= 0
 c57:  4 x7 + 4 x57 + 4 x107 + 4 x157 + 4 x207 - 10 x257 <= 0
 c58:  4 x8 + 4 x58 + 4 x108 + 4 x158 + 4 x208 - 10 x258 <= 0
 c59:  4 x9 + 4 x59 + 4 x109 + 4 x159 + 4 x209 - 9 x259 <= 0
 c60:  4 x10 + 4 x60 + 4 x110 + 4 x160 + 4 x210 - 9 x260 <= 0
 c61:  4 x11 + 4 x61 + 4 x111 + 4 x161 + 4 x211 - 11 x261 <= 0
 c62:  4 x12 + 4 x62 + 4 x112 + 4 x162 + 4 x212 - 10 x262 <= 0
 c63:  4 x13 + 4 x63 + 4 x113 + 4 x163 + 4 x213 - 10 x263 <= 0
 c64:  4 x14 + 4 x64 + 4 x114 + 4 x164 + 4 x214 - 11 x264 <= 0
 c65:  4 x15 + 4 x65 + 4 x115 + 4 x165 + 4 x215 - 11 x265 <= 0
 c66:  4 x16 + 4 x66 + 4 x116 + 4 x166 + 4 x216 - 11 x266 <= 0
 c67:  4 x17 + 4 x67 + 4 x117 + 4 x167 + 4 x217 - 10 x267 <= 0
 c68:  4 x18 + 4 x68 + 4 x118 + 4 x168 + 4 x218 - 11 x268 <= 0
 c69:  4 x19 + 4 x69 + 4 x119 + 4 x169 + 4 x219 - 10 x269 <= 0
 c70:  4 x20 + 4 x70 + 4 x120 + 4 x170 + 4 x220 - 11 x270 <= 0
 c71:  4 x21 + 4 x71 + 4 x121 + 4 x171 + 4 x221 - 11 x271 <= 0
 c72:  4 x22 + 4 x72 + 4 x122 + 4 x172 + 4 x222 - 9 x272 <= 0
 c73:  4 x23 + 4 x73 + 4 x123 + 4 x173 + 4 x223 - 11 x273 <= 0
 c74:  4 x24 + 4 x74 + 4 x124 + 4 x174 + 4 x224 - 9 x274 <= 0
 c75:  4 x25 + 4 x75 + 4 x125 + 4 x175 + 4 x225 - 10 x275 <= 0
 c76:  4 x26 + 4 x76 + 4 x126 + 4 x176 + 4 x226 - 11 x276 <= 0
 c77:  4 x27 + 4 x77 + 4 x127 + 4 x177 + 4 x227 - 10 x277 <= 0
 c78:  4 x28 + 4 x78 + 4 x128 + 4 x178 + 4 x228 - 10 x278 <= 0
 c79:  4 x29 + 4 x79 + 4 x129 + 4 x179 + 4 x229 - 10 x279 <= 0
 c80:  4 x30 + 4 x80 + 4 x130 + 4 x180 + 4 x230 - 10 x280 <= 0
 c81:  4 x31 + 4 x81 + 4 x131 + 4 x181 + 4 x231 - 10 x281 <= 0
 c82:  4 x32 + 4 x82 + 4 x132 + 4 x182 + 4 x232 - 10 x282 <= 0
 c83:  4 x33 + 4 x83 + 4 x133 + 4 x183 + 4 x233 - 11 x283 <= 0
 c84:  4 x34 + 4 x84 + 4 x134 + 4 x184 + 4 x234 - 11 x284 <= 0
 c85:  4 x35 + 4 x85 + 4 x135 + 4 x185 + 4 x235 - 10 x285 <= 0
 c86:  4 x36 + 4 x86 + 4 x136 + 4 x186 + 4 x236 - 10 x286 <= 0
 c87:  4 x37 + 4 x87 + 4 x137 + 4 x187 + 4 x237 - 9 x287 <= 0
 c88:  4 x38 + 4 x88 + 4 x138 + 4 x188 + 4 x238 - 11 x288 <= 0
 c89:  4 x39 + 4 x89 + 4 x139 + 4 x189 + 4 x239 - 9 x289 <= 0
 c90:  4 x40 + 4 x90 + 4 x140 + 4 x190 + 4 x240 - 10 x290 <= 0
 c91:  4 x41 + 4 x91 + 4 x141 + 4 x191 + 4 x241 - 9 x291 <= 0
 c92:  4 x42 + 4 x92 + 4 x142 + 4 x192 + 4 x242 - 11 x292 <= 0
 c93:  4 x43 + 4 x93 + 4 x143 + 4 x193 + 4 x243 - 11 x293 <= 0
 c94:  4 x44 + 4 x94 + 4 x144 + 4 x194 + 4 x244 - 9 x294 <= 0
 c95:  4 x45 + 4 x95 + 4 x145 + 4 x195 + 4 x245 - 11 x295 <= 0
 c96:  4 x46 + 4 x96 + 4 x146 + 4 x196 + 4 x246 - 10 x296 <= 0
 c97:  4 x47 + 4 x97 + 4 x147 + 4 x197 + 4 x247 - 11 x297 <= 0
 c98:  4 x48 + 4 x98 + 4 x148 + 4 x198 + 4 x248 - 10 x298 <= 0
 c99:  4 x49 + 4 x99 + 4 x149 + 4 x199 + 4 x249 - 9 x299 <= 0
 c100: 4 x50 + 4 x100 + 4 x150 + 4 x200 + 4 x250 - 7 x300 <= 0
Bounds
 0 <= x1 <= 1
 0 <= x2 <= 1
 0 <= x3 <= 1
 0 <= x4 <= 1
 0 <= x5 <= 1
 0 <= x6 <= 1
 0 <= x7 <= 1
 0 <= x8 <= 1
 0 <= x9 <= 1
 0 <= x10 <= 1
 0 <= x11 <= 1
 0 <= x12 <= 1
 0 <= x13 <= 1
 0 <= x14 <= 1
 0 <= x15 <= 1
 0 <= x16 <= 1
 0 <= x17 <= 1
 0 <= x18 <= 1
 0 <= x19 <= 1
 0 <= x20 <= 1
 0 <= x21 <= 1
 0 <= x22 <= 1
 0 <= x23 <= 1
 0 <= x24 <= 1
 0 <= x25 <= 1
 0 <= x26 <= 1
 0 <= x27 <= 1
 0 <= x28 <= 1
 0 <= x29 <= 1
 0 <= x30 <= 1
 0 <= x31 <= 1
 0 <= x32 <= 1
 0 <= x33 <= 1
 0 <= x34 <= 1
 0 <= x35 <= 1
 0 <= x36 <= 1
 0 <= x37 <= 1
 0 <= x38 <= 1
 0 <= x39 <= 1
 0 <= x40 <= 1
 0 <= x41 <= 1
 0 <= x42 <= 1
 0 <= x43 <= 1
 0 <= x44 <= 1
 0 <= x45 <= 1
 0 <= x46 <= 1
 0 <= x47 <= 1
 0 <= x48 <= 1
 0 <= x49 <= 1
 0 <= x50 <= 1
 0 <= x51 <= 1
 0 <= x52 <= 1
 0 <= x53 <= 1
 0 <= x54 <= 1
 0 <= x55 <= 1
 0 <= x56 <= 1
 0 <= x57 <= 1
 0 <= x58 <= 1
 0 <= x59 <= 1
 0 <= x60 <= 1
 0 <= x61 <= 1
 0 <= x62 <= 1
 0 <= x63 <= 1
 0 <= x64 <= 1
 0 <= x65 <= 1
 0 <= x66 <= 1
 0 <= x67 <= 1
 0 <= x68 <= 1
 0 <= x69 <= 1
 0 <= x70 <= 1
 0 <= x71 <= 1
 0 <= x72 <= 1
 0 <= x73 <= 1
 0 <= x74 <= 1
 0 <= x75 <= 1
 0 <= x76 <= 1
 0 <= x77 <= 1
 0 <= x78 <= 1
 0 <= x79 <= 1
 0 <= x80 <= 1
 0 <= x81 <= 1
 0 <= x82 <= 1
 0 <= x83 <= 1
 0 <= x84 <= 1
 0 <= x85 <= 1
 0 <= x86 <= 1
 0 <= x87 <= 1
 0 <= x88 <= 1
 0 <= x89 <= 1
 0 <= x90 <= 1
 0 <= x91 <= 1
 0 <= x92 <= 1
 0 <= x93 <= 1
 0 <= x94 <= 1
 0 <= x95 <= 1
 0 <= x96 <= 1
 0 <= x97 <= 1
 0 <= x98 <= 1
 0 <= x99 <= 1
 0 <= x100 <= 1
 0 <= x101 <= 1
 0 <= x102 <= 1
 0 <= x103 <= 1
 0 <= x104 <= 1
 0 <= x105 <= 1
 0 <= x106 <= 1
 0 <= x107 <= 1
 0 <= x108 <= 1
 0 <= x109 <= 1
 0 <= x110 <= 1
 0 <= x111 <= 1
 0 <= x112 <= 1
 0 <= x113 <= 1
 0 <= x114 <= 1
 0 <= x115 <= 1
 0 <= x116 <= 1
 0 <= x117 <= 1
 0 <= x118 <= 1
 0 <= x119 <= 1
 0 <= x120 <= 1
 0 <= x121 <= 1
 0 <= x122 <= 1
 0 <= x123 <= 1
 0 <= x124 <= 1
 0 <= x125 <= 1
 0 <= x126 <= 1
 0 <= x127 <= 1
 0 <= x128 <= 1
 0 <= x129 <= 1
 0 <= x130 <= 1
 0 <= x131 <= 1
 0 <= x132 <= 1
 0 <= x133 <= 1
 0 <= x134 <= 1
 0 <= x135 <= 1
 0 <= x136 <= 1
 0 <= x137 <= 1
 0 <= x138 <= 1
 0 <= x139 <= 1
 0 <= x140 <= 1
 0 <= x141 <= 1
 0 <= x142 <= 1
 0 <= x143 <= 1
 0 <= x144 <= 1
 0 <= x145 <= 1
 0 <= x146 <= 1
 0 <= x147 <= 1
 0 <= x148 <= 1
 0 <= x149 <= 1
 0 <= x150 <= 1
 0 <= x151 <= 1
 0 <= x152 <= 1
 0 <= x153 <= 1
 0 <= x154 <= 1
 0 <= x155 <= 1
 0 <= x156 <= 1
 0 <= x157 <= 1
 0 <= x158 <= 1
 0 <= x159 <= 1
 0 <= x160 <= 1
 0 <= x161 <= 1
 0 <= x162 <= 1
 0 <= x163 <= 1
 0 <= x164 <= 1
 0 <= x165 <= 1
 0 <= x166 <= 1
 0 <= x167 <= 1
 0 <= x168 <= 1
 0 <= x169 <= 1
 0 <= x170 <= 1
 0 <= x171 <= 1
 0 <= x172 <= 1
 0 <= x173 <= 1
 0 <= x174 <= 1
 0 <= x175 <= 1
 0 <= x176 <= 1
 0 <= x177 <= 1
 0 <= x178 <= 1
 0 <= x179 <= 1
 0 <= x180 <= 1
 0 <= x181 <= 1
 0 <= x182 <= 1
 0 <= x183 <= 1
 0 <= x184 <= 1
 0 <= x185 <= 1
 0 <= x186 <= 1
 0 <= x187 <= 1
 0 <= x188 <= 1
 0 <= x189 <= 1
 0 <= x190 <= 1
 0 <= x191 <= 1
 0 <= x192 <= 1
 0 <= x193 <= 1
 0 <= x194 <= 1
 0 <= x195 <= 1
 0 <= x196 <= 1
 0 <= x197 <= 1
 0 <= x198 <= 1
 0 <= x199 <= 1
 0 <= x200 <= 1
 0 <= x201 <= 1
 0 <= x202 <= 1
 0 <= x203 <= 1
 0 <= x204 <= 1
 0 <= x205 <= 1
 0 <= x206 <= 1
 0 <= x207 <= 1
 0 <= x208 <= 1
 0 <= x209 <= 1
 0 <= x210 <= 1
 0 <= x211 <= 1
 0 <= x212 <= 1
 0 <= x213 <= 1
 0 <= x214 <= 1
 0 <= x215 <= 1
 0 <= x216 <= 1
 0 <= x217 <= 1
 0 <= x218 <= 1
 0 <= x219 <= 1
 0 <= x220 <= 1
 0 <= x221 <= 1
 0 <= x222 <= 1
 0 <= x223 <= 1
 0 <= x224 <= 1
 0 <= x225 <= 1
 0 <= x226 <= 1
 0 <= x227 <= 1
 0 <= x228 <= 1
 0 <= x229 <= 1
 0 <= x230 <= 1
 0 <= x231 <= 1
 0 <= x232 <= 1
 0 <= x233 <= 1
 0 <= x234 <= 1
 0 <= x235 <= 1
 0 <= x236 <= 1
 0 <= x237 <= 1
 0 <= x238 <= 1
 0 <= x239 <= 1
 0 <= x240 <= 1
 0 <= x241 <= 1
 0 <= x242 <= 1
 0 <= x243 <= 1
 0 <= x244 <= 1
 0 <= x245 <= 1
 0 <= x246 <= 1
 0 <= x247 <= 1
 0 <= x248 <= 1
 0 <= x249 <= 1
 0 <= x250 <= 1
 0 <= x251 <= 1
 0 <= x252 <= 1
 0 <= x253 <= 1
 0 <= x254 <= 1
 0 <= x255 <= 1
 0 <= x256 <= 1
 0 <= x257 <= 1
 0 <= x258 <= 1
 0 <= x259 <= 1
 0 <= x260 <= 1
 0 <= x261 <= 1
 0 <= x262 <= 1
 0 <= x263 <= 1
 0 <= x264 <= 1
 0 <= x265 <= 1
 0 <= x266 <= 1
 0 <= x267 <= 1
 0 <= x268 <= 1
 0 <= x269 <= 1
 0 <= x270 <= 1
 0 <= x271 <= 1
 0 <= x272 <= 1
 0 <= x273 <= 1
 0 <= x274 <= 1
 0 <= x275 <= 1
 0 <= x276 <= 1
 0 <= x277 <= 1
 0 <= x278 <= 1
 0 <= x279 <= 1
 0 <= x280 <= 1
 0 <= x281 <= 1
 0 <= x282 <= 1
 0 <= x283 <= 1
 0 <= x284 <= 1
 0 <= x285 <= 1
 0 <= x286 <= 1
 0 <= x287 <= 1
 0 <= x288 <= 1
 0 <= x289 <= 1
 0 <= x290 <= 1
 0 <= x291 <= 1
 0 <= x292 <= 1
 0 <= x293 <= 1
 0 <= x294 <= 1
 0 <= x295 <= 1
 0 <= x296 <= 1
 0 <= x297 <= 1
 0 <= x298 <= 1
 0 <= x299 <= 1
 0 <= x300 <= 1
Binaries
 x251  x252  x253  x254  x255  x256  x257  x258  x259  x260  x261  x262  x263 
 x264  x265  x266  x267  x268  x269  x270  x271  x272  x273  x274  x275  x276 
 x277  x278  x279  x280  x281  x282  x283  x284  x285  x286  x287  x288  x289 
 x290  x291  x292  x293  x294  x295  x296  x297  x298  x299  x300 
End
